45
1 0 24
2 0 29
2 1 50
3 0 29
3 1 38
3 2 9
4 0 39
4 1 48
4 2 39
4 3 13
5 0 25
5 1 31
5 2 15
5 3 25
5 4 40
6 0 6
6 1 11
6 2 50
6 3 43
6 4 6
6 5 6
7 0 38
7 1 26
7 2 2
7 3 32
7 4 8
7 5 9
7 6 44
8 0 41
8 1 44
8 2 39
8 3 49
8 4 27
8 5 46
8 6 38
8 7 21
9 0 1
9 1 29
9 2 2
9 3 10
9 4 4
9 5 4
9 6 47
9 7 32
9 8 13
10 0 21
10 1 23
10 2 12
10 3 27
10 4 13
10 5 4
10 6 20
10 7 33
10 8 32
10 9 21
11 0 20
11 1 39
11 2 41
11 3 6
11 4 29
11 5 38
11 6 42
11 7 42
11 8 47
11 9 9
11 10 3
12 0 15
12 1 1
12 2 10
12 3 17
12 4 42
12 5 21
12 6 27
12 7 14
12 8 25
12 9 43
12 10 24
12 11 30
13 0 15
13 1 37
13 2 24
13 3 4
13 4 29
13 5 43
13 6 34
13 7 2
13 8 41
13 9 17
13 10 43
13 11 29
13 12 25
14 0 9
14 1 9
14 2 5
14 3 24
14 4 2
14 5 36
14 6 37
14 7 21
14 8 48
14 9 13
14 10 37
14 11 47
14 12 8
14 13 2
15 0 37
15 1 26
15 2 21
15 3 47
15 4 50
15 5 27
15 6 11
15 7 11
15 8 20
15 9 41
15 10 46
15 11 27
15 12 7
15 13 28
15 14 40
16 0 18
16 1 26
16 2 33
16 3 15
16 4 19
16 5 42
16 6 29
16 7 9
16 8 5
16 9 33
16 10 20
16 11 14
16 12 19
16 13 45
16 14 47
16 15 5
17 0 27
17 1 20
17 2 27
17 3 15
17 4 39
17 5 50
17 6 17
17 7 7
17 8 22
17 9 10
17 10 5
17 11 6
17 12 33
17 13 4
17 14 29
17 15 19
17 16 29
18 0 46
18 1 25
18 2 50
18 3 36
18 4 36
18 5 11
18 6 33
18 7 30
18 8 33
18 9 37
18 10 40
18 11 32
18 12 1
18 13 39
18 14 3
18 15 34
18 16 17
18 17 48
19 0 22
19 1 45
19 2 30
19 3 22
19 4 48
19 5 45
19 6 38
19 7 13
19 8 13
19 9 11
19 10 8
19 11 25
19 12 25
19 13 24
19 14 15
19 15 4
19 16 46
19 17 8
19 18 5
20 0 23
20 1 20
20 2 23
20 3 45
20 4 39
20 5 7
20 6 35
20 7 25
20 8 23
20 9 13
20 10 27
20 11 1
20 12 34
20 13 46
20 14 38
20 15 26
20 16 38
20 17 16
20 18 12
20 19 35
21 0 16
21 1 29
21 2 35
21 3 48
21 4 20
21 5 24
21 6 7
21 7 29
21 8 17
21 9 19
21 10 48
21 11 6
21 12 40
21 13 2
21 14 27
21 15 2
21 16 20
21 17 47
21 18 19
21 19 7
21 20 37
22 0 25
22 1 10
22 2 21
22 3 41
22 4 7
22 5 43
22 6 21
22 7 8
22 8 8
22 9 25
22 10 10
22 11 9
22 12 47
22 13 36
22 14 23
22 15 18
22 16 40
22 17 29
22 18 14
22 19 35
22 20 32
22 21 17
23 0 46
23 1 3
23 2 5
23 3 1
23 4 17
23 5 32
23 6 50
23 7 20
23 8 11
23 9 37
23 10 9
23 11 24
23 12 8
23 13 14
23 14 47
23 15 26
23 16 49
23 17 1
23 18 44
23 19 42
23 20 8
23 21 8
23 22 44
24 0 27
24 1 14
24 2 10
24 3 8
24 4 15
24 5 35
24 6 37
24 7 46
24 8 7
24 9 41
24 10 43
24 11 9
24 12 48
24 13 42
24 14 16
24 15 24
24 16 50
24 17 34
24 18 30
24 19 30
24 20 26
24 21 35
24 22 25
24 23 38
25 0 24
25 1 4
25 2 44
25 3 28
25 4 10
25 5 14
25 6 41
25 7 45
25 8 38
25 9 38
25 10 4
25 11 35
25 12 50
25 13 50
25 14 45
25 15 33
25 16 21
25 17 18
25 18 18
25 19 3
25 20 4
25 21 25
25 22 41
25 23 47
25 24 30
26 0 17
26 1 8
26 2 2
26 3 23
26 4 23
26 5 2
26 6 42
26 7 31
26 8 2
26 9 10
26 10 50
26 11 48
26 12 18
26 13 23
26 14 26
26 15 1
26 16 11
26 17 7
26 18 7
26 19 11
26 20 19
26 21 2
26 22 34
26 23 10
26 24 28
26 25 47
27 0 47
27 1 16
27 2 22
27 3 30
27 4 33
27 5 22
27 6 49
27 7 30
27 8 47
27 9 8
27 10 50
27 11 13
27 12 15
27 13 24
27 14 33
27 15 45
27 16 1
27 17 26
27 18 15
27 19 44
27 20 25
27 21 30
27 22 48
27 23 14
27 24 46
27 25 50
27 26 15
28 0 8
28 1 12
28 2 3
28 3 4
28 4 37
28 5 24
28 6 26
28 7 47
28 8 47
28 9 34
28 10 13
28 11 26
28 12 6
28 13 2
28 14 38
28 15 8
28 16 50
28 17 20
28 18 5
28 19 21
28 20 4
28 21 23
28 22 5
28 23 19
28 24 50
28 25 46
28 26 5
28 27 27
29 0 32
29 1 18
29 2 26
29 3 28
29 4 4
29 5 16
29 6 42
29 7 14
29 8 23
29 9 2
29 10 6
29 11 37
29 12 28
29 13 47
29 14 47
29 15 9
29 16 26
29 17 28
29 18 20
29 19 12
29 20 8
29 21 29
29 22 25
29 23 31
29 24 32
29 25 25
29 26 12
29 27 16
29 28 25
30 0 23
30 1 6
30 2 45
30 3 20
30 4 44
30 5 39
30 6 24
30 7 2
30 8 32
30 9 12
30 10 23
30 11 47
30 12 42
30 13 36
30 14 7
30 15 14
30 16 28
30 17 9
30 18 34
30 19 50
30 20 16
30 21 41
30 22 7
30 23 24
30 24 35
30 25 24
30 26 32
30 27 50
30 28 32
30 29 29
31 0 27
31 1 25
31 2 20
31 3 42
31 4 26
31 5 19
31 6 1
31 7 10
31 8 3
31 9 18
31 10 49
31 11 25
31 12 2
31 13 39
31 14 1
31 15 44
31 16 8
31 17 35
31 18 44
31 19 7
31 20 14
31 21 32
31 22 47
31 23 5
31 24 26
31 25 4
31 26 8
31 27 9
31 28 46
31 29 34
31 30 50
32 0 22
32 1 8
32 2 13
32 3 46
32 4 40
32 5 29
32 6 33
32 7 37
32 8 20
32 9 7
32 10 7
32 11 9
32 12 5
32 13 29
32 14 4
32 15 48
32 16 32
32 17 33
32 18 41
32 19 33
32 20 3
32 21 4
32 22 11
32 23 49
32 24 12
32 25 46
32 26 8
32 27 4
32 28 39
32 29 13
32 30 50
32 31 23
33 0 26
33 1 18
33 2 35
33 3 8
33 4 21
33 5 3
33 6 16
33 7 24
33 8 36
33 9 28
33 10 45
33 11 18
33 12 16
33 13 7
33 14 4
33 15 14
33 16 11
33 17 29
33 18 36
33 19 11
33 20 49
33 21 3
33 22 38
33 23 3
33 24 43
33 25 50
33 26 36
33 27 20
33 28 7
33 29 44
33 30 37
33 31 35
33 32 26
34 0 18
34 1 10
34 2 22
34 3 38
34 4 50
34 5 50
34 6 18
34 7 46
34 8 15
34 9 10
34 10 7
34 11 2
34 12 10
34 13 36
34 14 3
34 15 37
34 16 1
34 17 12
34 18 32
34 19 20
34 20 15
34 21 11
34 22 5
34 23 41
34 24 31
34 25 3
34 26 6
34 27 24
34 28 35
34 29 37
34 30 24
34 31 42
34 32 34
34 33 10
35 0 18
35 1 5
35 2 28
35 3 32
35 4 17
35 5 45
35 6 31
35 7 16
35 8 34
35 9 11
35 10 2
35 11 22
35 12 50
35 13 39
35 14 20
35 15 28
35 16 42
35 17 42
35 18 6
35 19 8
35 20 18
35 21 46
35 22 1
35 23 31
35 24 20
35 25 50
35 26 17
35 27 32
35 28 39
35 29 8
35 30 12
35 31 42
35 32 49
35 33 34
35 34 12
36 0 6
36 1 17
36 2 13
36 3 15
36 4 47
36 5 45
36 6 35
36 7 37
36 8 37
36 9 31
36 10 3
36 11 36
36 12 47
36 13 40
36 14 30
36 15 11
36 16 21
36 17 35
36 18 25
36 19 48
36 20 24
36 21 37
36 22 28
36 23 19
36 24 24
36 25 43
36 26 10
36 27 27
36 28 31
36 29 50
36 30 14
36 31 49
36 32 42
36 33 21
36 34 2
36 35 35
37 0 40
37 1 33
37 2 40
37 3 21
37 4 43
37 5 15
37 6 10
37 7 27
37 8 15
37 9 37
37 10 18
37 11 42
37 12 34
37 13 36
37 14 8
37 15 48
37 16 8
37 17 4
37 18 17
37 19 25
37 20 19
37 21 28
37 22 15
37 23 41
37 24 4
37 25 44
37 26 44
37 27 21
37 28 26
37 29 48
37 30 14
37 31 46
37 32 13
37 33 42
37 34 47
37 35 16
37 36 23
38 0 27
38 1 10
38 2 15
38 3 49
38 4 9
38 5 45
38 6 49
38 7 14
38 8 41
38 9 20
38 10 17
38 11 5
38 12 4
38 13 23
38 14 30
38 15 9
38 16 16
38 17 5
38 18 12
38 19 24
38 20 1
38 21 21
38 22 45
38 23 33
38 24 37
38 25 41
38 26 3
38 27 5
38 28 29
38 29 20
38 30 4
38 31 11
38 32 3
38 33 11
38 34 18
38 35 14
38 36 8
38 37 31
39 0 22
39 1 33
39 2 26
39 3 10
39 4 22
39 5 25
39 6 7
39 7 36
39 8 1
39 9 5
39 10 21
39 11 11
39 12 46
39 13 17
39 14 45
39 15 14
39 16 38
39 17 21
39 18 11
39 19 38
39 20 12
39 21 3
39 22 19
39 23 43
39 24 38
39 25 29
39 26 50
39 27 11
39 28 12
39 29 9
39 30 20
39 31 20
39 32 5
39 33 13
39 34 21
39 35 40
39 36 37
39 37 43
39 38 32
40 0 6
40 1 32
40 2 20
40 3 8
40 4 43
40 5 15
40 6 14
40 7 13
40 8 6
40 9 20
40 10 4
40 11 28
40 12 17
40 13 45
40 14 28
40 15 13
40 16 6
40 17 4
40 18 14
40 19 2
40 20 30
40 21 37
40 22 49
40 23 21
40 24 1
40 25 48
40 26 47
40 27 29
40 28 13
40 29 4
40 30 34
40 31 2
40 32 34
40 33 1
40 34 2
40 35 45
40 36 24
40 37 4
40 38 23
40 39 11
41 0 20
41 1 25
41 2 42
41 3 43
41 4 20
41 5 39
41 6 16
41 7 47
41 8 39
41 9 27
41 10 7
41 11 28
41 12 42
41 13 5
41 14 49
41 15 37
41 16 2
41 17 19
41 18 42
41 19 22
41 20 8
41 21 38
41 22 4
41 23 5
41 24 47
41 25 33
41 26 17
41 27 15
41 28 25
41 29 27
41 30 23
41 31 23
41 32 5
41 33 7
41 34 19
41 35 16
41 36 7
41 37 13
41 38 4
41 39 50
41 40 39
42 0 30
42 1 33
42 2 41
42 3 8
42 4 5
42 5 6
42 6 1
42 7 16
42 8 11
42 9 44
42 10 10
42 11 12
42 12 35
42 13 26
42 14 50
42 15 38
42 16 2
42 17 30
42 18 26
42 19 46
42 20 29
42 21 36
42 22 19
42 23 19
42 24 48
42 25 28
42 26 17
42 27 40
42 28 19
42 29 8
42 30 50
42 31 12
42 32 41
42 33 32
42 34 5
42 35 11
42 36 17
42 37 31
42 38 9
42 39 33
42 40 47
42 41 25
43 0 39
43 1 5
43 2 31
43 3 19
43 4 24
43 5 42
43 6 41
43 7 42
43 8 13
43 9 47
43 10 49
43 11 20
43 12 13
43 13 8
43 14 17
43 15 3
43 16 36
43 17 9
43 18 4
43 19 9
43 20 34
43 21 46
43 22 2
43 23 45
43 24 42
43 25 37
43 26 15
43 27 32
43 28 30
43 29 30
43 30 42
43 31 17
43 32 7
43 33 38
43 34 11
43 35 34
43 36 2
43 37 24
43 38 1
43 39 17
43 40 50
43 41 35
43 42 23
44 0 44
44 1 19
44 2 46
44 3 26
44 4 4
44 5 40
44 6 24
44 7 14
44 8 35
44 9 3
44 10 2
44 11 24
44 12 46
44 13 42
44 14 7
44 15 25
44 16 48
44 17 14
44 18 46
44 19 9
44 20 39
44 21 16
44 22 21
44 23 11
44 24 35
44 25 4
44 26 8
44 27 7
44 28 19
44 29 6
44 30 42
44 31 45
44 32 24
44 33 10
44 34 11
44 35 39
44 36 46
44 37 32
44 38 41
44 39 6
44 40 45
44 41 33
44 42 41
44 43 48
